<number of tasks>
100

<cycle time>
1000

<order strength>
0.597


<task times>
1 212
2 142
3 30
4 146
5 254
6 125
7 257
8 50
9 206
10 124
11 192
12 357
13 49
14 92
15 92
16 137
17 20
18 87
19 112
20 26
21 173
22 222
23 121
24 254
25 100
26 44
27 90
28 153
29 246
30 263
31 79
32 127
33 159
34 168
35 253
36 53
37 209
38 131
39 84
40 214
41 123
42 141
43 82
44 97
45 104
46 237
47 203
48 44
49 102
50 111
51 146
52 132
53 24
54 186
55 196
56 117
57 57
58 47
59 97
60 52
61 87
62 108
63 161
64 116
65 74
66 65
67 204
68 61
69 241
70 47
71 136
72 101
73 101
74 192
75 130
76 85
77 62
78 29
79 70
80 60
81 125
82 36
83 54
84 140
85 238
86 166
87 394
88 132
89 198
90 194
91 158
92 86
93 76
94 128
95 29
96 230
97 54
98 149
99 63
100 109

<precedence relations>
1,8
2,10
3,11
4,9
4,13
4,14
5,12
5,13
5,14
6,13
6,14
7,13
7,14
8,17
9,15
10,18
11,17
12,16
13,17
13,18
13,19
13,20
13,21
14,17
14,18
14,19
14,20
14,21
15,21
16,20
17,22
17,23
17,24
18,24
18,34
18,36
19,24
19,45
19,48
20,25
20,29
20,30
21,28
21,29
21,30
22,26
22,28
22,30
23,27
23,28
23,29
23,30
24,57
24,67
25,31
26,32
27,33
28,34
28,35
28,36
29,39
29,40
29,45
30,34
30,35
31,37
32,38
33,39
34,38
34,39
34,40
35,48
35,56
36,62
36,66
37,42
38,41
38,43
38,45
38,55
39,44
40,50
40,57
41,46
42,47
43,48
43,49
43,67
44,48
44,49
44,50
44,67
45,68
45,71
46,51
47,52
48,53
48,57
48,64
49,54
49,56
49,69
50,54
50,55
51,59
52,60
53,61
54,58
54,63
55,62
55,63
55,64
56,62
57,62
57,63
58,65
59,67
60,68
61,66
62,75
63,68
63,70
63,71
64,69
64,70
65,73
66,72
66,74
66,93
67,82
69,82
69,96
70,75
70,76
71,75
71,76
72,77
73,79
74,81
75,78
75,80
75,82
75,83
75,84
76,82
76,84
77,88
78,85
79,86
80,87
81,89
82,94
82,99
82,100
83,90
84,89
84,90
84,93
84,99
85,93
86,91
87,93
88,92
89,95
89,96
89,97
90,94
90,98
91,99
92,100
97,100

<end>
